Rodando pra 1h

Optimize a model with 76 rows, 83 columns and 634 nonzeros
Coefficient statistics:
  Matrix range    [1e+00, 1e+04]
  Objective range [5e-01, 5e-01]
  Bounds range    [1e+00, 1e+04]
  RHS range       [1e+00, 1e+04]
Found heuristic solution: objective 361.5
Presolve removed 10 rows and 2 columns
Presolve time: 0.00s
Presolved: 66 rows, 81 columns, 430 nonzeros
Variable types: 42 continuous, 39 integer (37 binary)

Root relaxation: objective 3.334966e+01, 96 iterations, 0.00 seconds

    Nodes    |    Current Node    |     Objective Bounds      |     Work
 Expl Unexpl |  Obj  Depth IntInf | Incumbent    BestBd   Gap | It/Node Time

     0     0   33.34966    0   18  361.50000   33.34966  90.8%     -    0s
H    0     0                     322.0000000   33.34966  89.6%     -    0s
     0     0   69.86978    0   24  322.00000   69.86978  78.3%     -    0s
H    0     0                     302.0000000   69.86978  76.9%     -    0s
     0     0   69.88801    0   25  302.00000   69.88801  76.9%     -    0s
     0     0   74.56583    0   23  302.00000   74.56583  75.3%     -    0s
     0     0   80.61196    0   24  302.00000   80.61196  73.3%     -    0s
     0     0   92.21408    0   22  302.00000   92.21408  69.5%     -    0s
H    0     0                     283.0000000   92.21408  67.4%     -    0s
     0     0   92.49496    0   22  283.00000   92.49496  67.3%     -    0s
     0     0   94.56198    0   25  283.00000   94.56198  66.6%     -    0s
     0     0   95.82285    0   25  283.00000   95.82285  66.1%     -    0s
     0     0   96.28678    0   25  283.00000   96.28678  66.0%     -    0s
     0     0   96.79436    0   26  283.00000   96.79436  65.8%     -    0s
     0     0   97.14874    0   28  283.00000   97.14874  65.7%     -    0s
     0     0   97.14874    0   28  283.00000   97.14874  65.7%     -    0s
     0     2   97.21396    0   28  283.00000   97.21396  65.6%     -    0s
H 1033   392                     282.5000000  126.48343  55.2%   5.7    0s
* 1254   449              27     280.0000000  183.47728  34.5%   7.2    0s
* 1760   431              30     275.0000000  196.57588  28.5%   7.6    0s
* 1761   404              30     273.5000000  196.57588  28.1%   7.6    0s

Cutting planes:
  Gomory: 5
  MIR: 30
  Flow cover: 46
  Flow path: 4
  Zero half: 3
  Network: 19

Explored 6158 nodes (42812 simplex iterations) in 1.62 seconds
Thread count was 1 (of 4 available processors)

Optimal solution found (tolerance 1.00e-04)
Best objective 2.735000000000e+02, best bound 2.735000000000e+02, gap 0.0%
Tempo: 1.6 segundos

0 5 60 69 22 20 
1 6 56 23 54 25 
2 5 26 46 57 67 
3 4 49 49 40 34 
3 6 37 40 49 78 
4 5 44 48 42 32 
(272 275 264 256 )

